p cnf 10 22
10 9 -3 0
-10 9 3 0
10 9 1 0
-10 7 1 0
10 -6 -4 0
-10 -6 3 0
10 3 1 0
9 8 -4 0
9 -7 -4 0
9 -6 -4 0
-9 4 2 0
-9 3 -2 0
8 -7 -6 0
-8 7 3 0
-8 7 -2 0
-8 -6 5 0
8 -5 -4 0
-8 -5 -1 0
7 -5 1 0
7 4 -3 0
-7 4 -2 0
4 -3 2 0
